\ This file has been generated by DOcplex
\ ENCODING=ISO-8859-1
\Problem name: Track

Minimize
 obj: - 42 x_0_1 - 42 x_0_2 - 42 x_0_3 - 42 x_1_2 - 42 x_1_3 - 28 x_1_4
      - 42 x_2_3 - 28 x_2_4 - 14 x_2_5 - 28 x_3_4 - 14 x_3_5 - 14 x_4_5 + [
      18 x_0_1^2 + 36 x_0_1*x_0_2 + 36 x_0_1*x_0_3 + 35.990936104856 x_0_1*x_1_2
      + 35.994460887405 x_0_1*x_1_3 + 23.996011849554 x_0_1*x_1_4
      + 36 x_0_1*x_2_3 + 24 x_0_1*x_2_4 + 12 x_0_1*x_2_5 + 24 x_0_1*x_3_4
      + 12 x_0_1*x_3_5 + 12 x_0_1*x_4_5 + 18 x_0_2^2 + 36 x_0_2*x_0_3
      + 36 x_0_2*x_1_2 + 36 x_0_2*x_1_3 + 24 x_0_2*x_1_4
      + 35.994460886892 x_0_2*x_2_3 + 23.996011849342 x_0_2*x_2_4
      + 11.997151320712 x_0_2*x_2_5 + 24 x_0_2*x_3_4 + 12 x_0_2*x_3_5
      + 12 x_0_2*x_4_5 + 18 x_0_3^2 + 36 x_0_3*x_1_2 + 36 x_0_3*x_1_3
      + 24 x_0_3*x_1_4 + 36 x_0_3*x_2_3 + 24 x_0_3*x_2_4 + 12 x_0_3*x_2_5
      + 23.996011850020 x_0_3*x_3_4 + 11.997151321323 x_0_3*x_3_5
      - 0.002215640599 x_0_3*x_3_6 + 12 x_0_3*x_4_5 + 18 x_1_2^2
      + 36 x_1_2*x_1_3 + 24 x_1_2*x_1_4 + 35.992330377451 x_1_2*x_2_3
      + 23.995014780070 x_1_2*x_2_4 + 11.996676526130 x_1_2*x_2_5
      + 24 x_1_2*x_3_4 + 12 x_1_2*x_3_5 + 12 x_1_2*x_4_5 + 18 x_1_3^2
      + 24 x_1_3*x_1_4 + 36 x_1_3*x_2_3 + 24 x_1_3*x_2_4 + 12 x_1_3*x_2_5
      + 23.995014781265 x_1_3*x_3_4 + 11.996676527083 x_1_3*x_3_5
      - 0.002492604441 x_1_3*x_3_6 + 12 x_1_3*x_4_5 + 8 x_1_4^2 + 24 x_1_4*x_2_3
      + 16 x_1_4*x_2_4 + 8 x_1_4*x_2_5 + 16 x_1_4*x_3_4 + 8 x_1_4*x_3_5
      + 7.996676526630 x_1_4*x_4_5 - 0.002492604715 x_1_4*x_4_6 + 18 x_2_3^2
      + 24 x_2_3*x_2_4 + 12 x_2_3*x_2_5 + 23.992878250052 x_2_3*x_3_4
      + 11.995845657100 x_2_3*x_3_5 - 0.002932477107 x_2_3*x_3_6
      + 12 x_2_3*x_4_5 + 8 x_2_4^2 + 8 x_2_4*x_2_5 + 16 x_2_4*x_3_4
      + 8 x_2_4*x_3_5 + 7.995845656290 x_2_4*x_4_5 - 0.002932477644 x_2_4*x_4_6
      + 2 x_2_5^2 + 8 x_2_5*x_3_4 + 4 x_2_5*x_3_5 + 4 x_2_5*x_4_5
      - 0.002932477993 x_2_5*x_5_6 + 8 x_3_4^2 + 8 x_3_4*x_3_5
      + 7.994135082526 x_3_4*x_4_5 - 0.003692735463 x_3_4*x_4_6 + 2 x_3_5^2
      + 4 x_3_5*x_4_5 - 0.003692735443 x_3_5*x_5_6 + 2 x_4_5^2
      - 0.004985206825 x_4_5*x_5_6 ]/2 + 49
Subject To
 c1: x_0_1 + x_0_2 + x_0_3 = 1
 c2: x_1_2 + x_1_3 + x_1_4 = 1
 c3: x_2_3 + x_2_4 + x_2_5 = 1
 c4: x_3_4 + x_3_5 + x_3_6 = 1
 c5: x_4_5 + x_4_6 = 1
 c6: x_5_6 = 1
 c7: x_0_1 = 1
 c8: x_0_2 + x_1_2 = 1
 c9: x_0_3 + x_1_3 + x_2_3 = 1
 c10: x_1_4 + x_2_4 + x_3_4 = 1
 c11: x_2_5 + x_3_5 + x_4_5 = 1
 c12: x_3_6 + x_4_6 + x_5_6 = 1
 c13: x_0_1 - x_1_2 - x_1_3 - x_1_4 = 0
 c14: x_0_2 + x_1_2 - x_2_3 - x_2_4 - x_2_5 = 0
 c15: x_0_3 + x_1_3 + x_2_3 - x_3_4 - x_3_5 - x_3_6 = 0
 c16: x_0_2 + x_1_2 - x_2_3 - x_2_4 - x_2_5 = 0
 c17: x_0_3 + x_1_3 + x_2_3 - x_3_4 - x_3_5 - x_3_6 = 0
 c18: x_1_4 + x_2_4 + x_3_4 - x_4_5 - x_4_6 = 0
 c19: x_0_3 + x_1_3 + x_2_3 - x_3_4 - x_3_5 - x_3_6 = 0
 c20: x_1_4 + x_2_4 + x_3_4 - x_4_5 - x_4_6 = 0
 c21: x_2_5 + x_3_5 + x_4_5 - x_5_6 = 0
 c22: x_1_4 + x_2_4 + x_3_4 - x_4_5 - x_4_6 = 0
 c23: x_2_5 + x_3_5 + x_4_5 - x_5_6 = 0
 c24: x_2_5 + x_3_5 + x_4_5 - x_5_6 = 0

Bounds
 0 <= x_0_1 <= 1
 0 <= x_0_2 <= 1
 0 <= x_0_3 <= 1
 0 <= x_1_2 <= 1
 0 <= x_1_3 <= 1
 0 <= x_1_4 <= 1
 0 <= x_2_3 <= 1
 0 <= x_2_4 <= 1
 0 <= x_2_5 <= 1
 0 <= x_3_4 <= 1
 0 <= x_3_5 <= 1
 0 <= x_3_6 <= 1
 0 <= x_4_5 <= 1
 0 <= x_4_6 <= 1
 0 <= x_5_6 <= 1

Binaries
 x_0_1 x_0_2 x_0_3 x_1_2 x_1_3 x_1_4 x_2_3 x_2_4 x_2_5 x_3_4 x_3_5 x_3_6 x_4_5
 x_4_6 x_5_6
End
